20
3 1 5
3 2 9
4 1 2
5 0 8
5 1 10
5 3 9
5 4 14
6 2 12
6 4 4
7 1 14
7 2 3
7 5 4
8 0 4
8 2 5
8 4 7
8 6 6
8 7 14
9 0 12
9 1 10
9 2 6
9 6 4
10 2 7
10 3 5
10 7 12
10 8 6
11 1 14
11 3 3
11 4 12
11 5 3
11 8 14
11 9 1
11 10 13
12 0 1
12 2 4
12 4 12
12 5 5
12 9 6
13 0 6
13 1 8
13 2 1
13 4 7
13 5 14
13 7 7
13 8 4
13 12 3
14 1 4
14 7 6
14 9 2
14 10 13
15 1 8
15 5 9
15 6 11
15 9 13
15 10 9
15 11 4
15 12 8
15 14 12
16 4 14
16 11 13
16 12 2
16 15 10
17 1 7
17 3 4
17 5 7
17 6 3
17 7 10
17 8 12
17 9 14
17 10 11
17 13 13
17 14 10
17 15 11
17 16 14
18 1 1
18 7 10
18 8 8
18 10 14
18 11 9
18 12 2
18 13 12
18 16 4
19 3 7
19 4 10
19 8 4
19 9 7
19 10 1
19 16 13
19 18 7
